peakDumbCharging = 14800; 
Machine = anon_enum(16); 
machineSpeed = [3700,3700,3700,3700,3700,3700,3700,3700,3700,3700,3700,3700,3700,3700,3700,3700]; 
machineLoad = [3700,3700,3700,3700,3700,3700,3700,3700,3700,3700,3700,3700,3700,3700,3700,3700]; 
Car = anon_enum(11); 
demandCar = [27280,20720,12040,10200,23040,3960,16560,3520,8680,11000,14360]; 
arrivalCar = [70,68,66,59,59,58,58,55,53,52,51]; 
departureCar = [82,77,71,63,67,61,67,57,60,59,57]; 
